letting np_cars_plus be 145
letting np_classes be 151
letting np_options be 185
letting quantity_range_min be 1
letting quantity_range_delta be 32
letting maxcars_range_min be 4
letting maxcars_range_delta be 6
letting blksize_delta_range_min be 5
letting blksize_delta_range_delta be 5
letting usage_card_min be 317
letting usage_card_delta be 81
letting blksize_delta_range_max be 5
letting maxcars_range_max be 4
letting quantity_range_max be 1
letting usage_card_max be 317
